VER
4

OBJSENSE
MIN

VAR
17 1
F 17

CON
684 4
SVECQRE 651
SVECQE 17
SVECPSD 15
L= 1

OBJACOORD
2
0 1.0
1 1.0

ACOORD
117
0 0 1.0
1 2 1.0
16 3 1.0
21 4 1.0
56 5 1.0
61 6 1.0
66 7 1.0
121 8 1.0
126 9 1.0
131 10 1.0
136 11 1.0
211 12 1.0
216 13 1.0
221 14 1.0
226 15 1.0
231 16 1.0
326 2 1.0
328 2 1.0
331 2 1.0
335 2 1.0
340 2 1.0
341 3 1.0
346 4 1.0
348 3 1.0
353 4 1.0
356 3 1.0
361 4 1.0
365 3 1.0
370 4 1.0
375 3 1.0
380 4 1.0
381 5 1.0
386 6 1.0
391 7 1.0
393 5 1.0
398 6 1.0
403 7 1.0
406 5 1.0
411 6 1.0
416 7 1.0
420 5 1.0
425 6 1.0
430 7 1.0
435 5 1.0
440 6 1.0
445 7 1.0
446 8 1.0
451 9 1.0
456 10 1.0
461 11 1.0
463 8 1.0
468 9 1.0
473 10 1.0
478 11 1.0
481 8 1.0
486 9 1.0
491 10 1.0
496 11 1.0
500 8 1.0
505 9 1.0
510 10 1.0
515 11 1.0
520 8 1.0
525 9 1.0
530 10 1.0
535 11 1.0
536 12 1.0
541 13 1.0
546 14 1.0
551 15 1.0
556 16 1.0
558 12 1.0
563 13 1.0
568 14 1.0
573 15 1.0
578 16 1.0
581 12 1.0
586 13 1.0
591 14 1.0
596 15 1.0
601 16 1.0
605 12 1.0
610 13 1.0
615 14 1.0
620 15 1.0
625 16 1.0
630 12 1.0
635 13 1.0
640 14 1.0
645 15 1.0
650 16 1.0
651 1 1.0
653 2 1.0
653 4 1.0
653 7 1.0
653 11 1.0
653 16 1.0
668 2 1.0
669 3 1.0
670 4 1.0
671 5 1.0
672 6 1.0
673 7 1.0
674 8 1.0
675 9 1.0
676 10 1.0
677 11 1.0
678 12 1.0
679 13 1.0
680 14 1.0
681 15 1.0
682 16 1.0
683 2 1.0
683 4 1.0
683 7 1.0
683 11 1.0
683 16 1.0

BCOORD
2
652 -1.0
683 1.0
